# Objective value = 6
x0,1_1 0
x0,1_4 1
x0,1_6 0
x0,1_7 0
x0,1_9 0
x0,1_10 0
x0,1_12 0
x0,1_13 0
x0,1_14 0
x0,1_16 0
x0,1_18 0
x0,1_19 0
x0,1_20 0
x0,1_28 0
x0,1_32 0
x0,2_1 0
x0,2_4 0
x0,2_6 0
x0,2_7 0
x0,2_9 0
x0,2_10 0
x0,2_12 0
x0,2_13 1
x0,2_14 0
x0,2_16 0
x0,2_18 0
x0,2_19 0
x0,2_20 0
x0,2_28 0
x0,2_32 0
x0,3_1 0
x0,3_4 0
x0,3_6 0
x0,3_7 0
x0,3_9 0
x0,3_10 0
x0,3_12 0
x0,3_13 0
x0,3_14 1
x0,3_16 0
x0,3_18 0
x0,3_19 0
x0,3_20 0
x0,3_28 0
x0,3_32 0
x0,4_1 0
x0,4_4 0
x0,4_6 0
x0,4_7 0
x0,4_9 0
x0,4_10 0
x0,4_12 0
x0,4_13 0
x0,4_14 0
x0,4_16 0
x0,4_18 0
x0,4_19 0
x0,4_20 1
x0,4_28 0
x0,4_32 0
x0,5_1 0
x0,5_4 0
x0,5_6 0
x0,5_7 0
x0,5_9 0
x0,5_10 0
x0,5_12 0
x0,5_13 0
x0,5_14 0
x0,5_16 0
x0,5_18 0
x0,5_19 0
x0,5_20 0
x0,5_28 0
x0,5_32 1
x0,6_1 0
x0,6_4 0
x0,6_6 0
x0,6_7 0
x0,6_9 0
x0,6_10 0
x0,6_12 0
x0,6_13 0
x0,6_14 0
x0,6_16 0
x0,6_18 0
x0,6_19 0
x0,6_20 0
x0,6_28 0
x0,6_32 0
x0,7_1 0
x0,7_4 0
x0,7_6 0
x0,7_7 0
x0,7_9 0
x0,7_10 0
x0,7_12 0
x0,7_13 0
x0,7_14 0
x0,7_16 0
x0,7_18 0
x0,7_19 0
x0,7_20 0
x0,7_28 0
x0,7_32 0
x0,8_1 0
x0,8_4 0
x0,8_6 0
x0,8_7 0
x0,8_9 0
x0,8_10 0
x0,8_12 0
x0,8_13 0
x0,8_14 0
x0,8_16 0
x0,8_18 0
x0,8_19 0
x0,8_20 0
x0,8_28 0
x0,8_32 0
x0,9_1 0
x0,9_4 0
x0,9_6 0
x0,9_7 0
x0,9_9 0
x0,9_10 0
x0,9_12 0
x0,9_13 0
x0,9_14 0
x0,9_16 0
x0,9_18 0
x0,9_19 0
x0,9_20 0
x0,9_28 0
x0,9_32 0
x0,10_1 0
x0,10_4 0
x0,10_6 0
x0,10_7 0
x0,10_9 0
x0,10_10 0
x0,10_12 0
x0,10_13 0
x0,10_14 0
x0,10_16 0
x0,10_18 0
x0,10_19 0
x0,10_20 0
x0,10_28 0
x0,10_32 0
x0,11_1 0
x0,11_4 0
x0,11_6 0
x0,11_7 0
x0,11_9 0
x0,11_10 0
x0,11_12 0
x0,11_13 0
x0,11_14 0
x0,11_16 0
x0,11_18 0
x0,11_19 0
x0,11_20 0
x0,11_28 0
x0,11_32 0
x0,12_1 0
x0,12_4 0
x0,12_6 0
x0,12_7 0
x0,12_9 0
x0,12_10 0
x0,12_12 0
x0,12_13 0
x0,12_14 0
x0,12_16 0
x0,12_18 0
x0,12_19 0
x0,12_20 0
x0,12_28 0
x0,12_32 0
x0,13_1 0
x0,13_4 0
x0,13_6 0
x0,13_7 0
x0,13_9 0
x0,13_10 0
x0,13_12 0
x0,13_13 0
x0,13_14 0
x0,13_16 0
x0,13_18 0
x0,13_19 0
x0,13_20 0
x0,13_28 0
x0,13_32 0
x0,14_1 0
x0,14_4 0
x0,14_6 0
x0,14_7 0
x0,14_9 0
x0,14_10 0
x0,14_12 0
x0,14_13 0
x0,14_14 0
x0,14_16 0
x0,14_18 0
x0,14_19 0
x0,14_20 0
x0,14_28 0
x0,14_32 0
x0,15_1 0
x0,15_4 0
x0,15_6 0
x0,15_7 0
x0,15_9 0
x0,15_10 0
x0,15_12 0
x0,15_13 0
x0,15_14 0
x0,15_16 0
x0,15_18 0
x0,15_19 0
x0,15_20 0
x0,15_28 0
x0,15_32 0
x1,2_1 0
x1,2_4 0
x1,2_6 0
x1,2_7 0
x1,2_9 1
x1,2_10 0
x1,2_12 0
x1,2_13 0
x1,2_14 0
x1,2_16 0
x1,2_18 0
x1,2_19 0
x1,2_20 0
x1,2_28 0
x1,2_32 0
x1,3_1 0
x1,3_4 0
x1,3_6 0
x1,3_7 0
x1,3_9 0
x1,3_10 1
x1,3_12 0
x1,3_13 0
x1,3_14 0
x1,3_16 0
x1,3_18 0
x1,3_19 0
x1,3_20 0
x1,3_28 0
x1,3_32 0
x1,4_1 0
x1,4_4 0
x1,4_6 0
x1,4_7 0
x1,4_9 0
x1,4_10 0
x1,4_12 0
x1,4_13 0
x1,4_14 0
x1,4_16 1
x1,4_18 0
x1,4_19 0
x1,4_20 0
x1,4_28 0
x1,4_32 0
x1,5_1 0
x1,5_4 0
x1,5_6 0
x1,5_7 0
x1,5_9 0
x1,5_10 0
x1,5_12 0
x1,5_13 0
x1,5_14 0
x1,5_16 0
x1,5_18 0
x1,5_19 0
x1,5_20 0
x1,5_28 1
x1,5_32 0
x1,6_1 0
x1,6_4 0
x1,6_6 0
x1,6_7 0
x1,6_9 0
x1,6_10 0
x1,6_12 0
x1,6_13 0
x1,6_14 0
x1,6_16 0
x1,6_18 0
x1,6_19 0
x1,6_20 0
x1,6_28 0
x1,6_32 0
x1,7_1 0
x1,7_4 0
x1,7_6 0
x1,7_7 0
x1,7_9 0
x1,7_10 0
x1,7_12 0
x1,7_13 0
x1,7_14 0
x1,7_16 0
x1,7_18 0
x1,7_19 0
x1,7_20 0
x1,7_28 0
x1,7_32 0
x1,8_1 0
x1,8_4 0
x1,8_6 0
x1,8_7 0
x1,8_9 0
x1,8_10 0
x1,8_12 0
x1,8_13 0
x1,8_14 0
x1,8_16 0
x1,8_18 0
x1,8_19 0
x1,8_20 0
x1,8_28 0
x1,8_32 0
x1,9_1 0
x1,9_4 0
x1,9_6 0
x1,9_7 0
x1,9_9 0
x1,9_10 0
x1,9_12 0
x1,9_13 0
x1,9_14 0
x1,9_16 0
x1,9_18 0
x1,9_19 0
x1,9_20 0
x1,9_28 0
x1,9_32 0
x1,10_1 0
x1,10_4 0
x1,10_6 0
x1,10_7 0
x1,10_9 0
x1,10_10 0
x1,10_12 0
x1,10_13 0
x1,10_14 0
x1,10_16 0
x1,10_18 0
x1,10_19 0
x1,10_20 0
x1,10_28 0
x1,10_32 0
x1,11_1 0
x1,11_4 0
x1,11_6 0
x1,11_7 0
x1,11_9 0
x1,11_10 0
x1,11_12 0
x1,11_13 0
x1,11_14 0
x1,11_16 0
x1,11_18 0
x1,11_19 0
x1,11_20 0
x1,11_28 0
x1,11_32 0
x1,12_1 0
x1,12_4 0
x1,12_6 0
x1,12_7 0
x1,12_9 0
x1,12_10 0
x1,12_12 0
x1,12_13 0
x1,12_14 0
x1,12_16 0
x1,12_18 0
x1,12_19 0
x1,12_20 0
x1,12_28 0
x1,12_32 0
x1,13_1 0
x1,13_4 0
x1,13_6 0
x1,13_7 0
x1,13_9 0
x1,13_10 0
x1,13_12 0
x1,13_13 0
x1,13_14 0
x1,13_16 0
x1,13_18 0
x1,13_19 0
x1,13_20 0
x1,13_28 0
x1,13_32 0
x1,14_1 0
x1,14_4 0
x1,14_6 0
x1,14_7 0
x1,14_9 0
x1,14_10 0
x1,14_12 0
x1,14_13 0
x1,14_14 0
x1,14_16 0
x1,14_18 0
x1,14_19 0
x1,14_20 0
x1,14_28 0
x1,14_32 0
x1,15_1 0
x1,15_4 0
x1,15_6 0
x1,15_7 0
x1,15_9 0
x1,15_10 0
x1,15_12 0
x1,15_13 0
x1,15_14 0
x1,15_16 0
x1,15_18 0
x1,15_19 0
x1,15_20 0
x1,15_28 0
x1,15_32 0
x2,3_1 1
x2,3_4 0
x2,3_6 0
x2,3_7 0
x2,3_9 0
x2,3_10 0
x2,3_12 0
x2,3_13 0
x2,3_14 0
x2,3_16 0
x2,3_18 0
x2,3_19 0
x2,3_20 0
x2,3_28 0
x2,3_32 0
x2,4_1 0
x2,4_4 0
x2,4_6 0
x2,4_7 1
x2,4_9 0
x2,4_10 0
x2,4_12 0
x2,4_13 0
x2,4_14 0
x2,4_16 0
x2,4_18 0
x2,4_19 0
x2,4_20 0
x2,4_28 0
x2,4_32 0
x2,5_1 0
x2,5_4 0
x2,5_6 0
x2,5_7 0
x2,5_9 0
x2,5_10 0
x2,5_12 0
x2,5_13 0
x2,5_14 0
x2,5_16 0
x2,5_18 0
x2,5_19 1
x2,5_20 0
x2,5_28 0
x2,5_32 0
x2,6_1 0
x2,6_4 0
x2,6_6 0
x2,6_7 0
x2,6_9 0
x2,6_10 0
x2,6_12 0
x2,6_13 0
x2,6_14 0
x2,6_16 0
x2,6_18 0
x2,6_19 0
x2,6_20 0
x2,6_28 0
x2,6_32 0
x2,7_1 0
x2,7_4 0
x2,7_6 0
x2,7_7 0
x2,7_9 0
x2,7_10 0
x2,7_12 0
x2,7_13 0
x2,7_14 0
x2,7_16 0
x2,7_18 0
x2,7_19 0
x2,7_20 0
x2,7_28 0
x2,7_32 0
x2,8_1 0
x2,8_4 0
x2,8_6 0
x2,8_7 0
x2,8_9 0
x2,8_10 0
x2,8_12 0
x2,8_13 0
x2,8_14 0
x2,8_16 0
x2,8_18 0
x2,8_19 0
x2,8_20 0
x2,8_28 0
x2,8_32 0
x2,9_1 0
x2,9_4 0
x2,9_6 0
x2,9_7 0
x2,9_9 0
x2,9_10 0
x2,9_12 0
x2,9_13 0
x2,9_14 0
x2,9_16 0
x2,9_18 0
x2,9_19 0
x2,9_20 0
x2,9_28 0
x2,9_32 0
x2,10_1 0
x2,10_4 0
x2,10_6 0
x2,10_7 0
x2,10_9 0
x2,10_10 0
x2,10_12 0
x2,10_13 0
x2,10_14 0
x2,10_16 0
x2,10_18 0
x2,10_19 0
x2,10_20 0
x2,10_28 0
x2,10_32 0
x2,11_1 0
x2,11_4 0
x2,11_6 0
x2,11_7 0
x2,11_9 0
x2,11_10 0
x2,11_12 0
x2,11_13 0
x2,11_14 0
x2,11_16 0
x2,11_18 0
x2,11_19 0
x2,11_20 0
x2,11_28 0
x2,11_32 0
x2,12_1 0
x2,12_4 0
x2,12_6 0
x2,12_7 0
x2,12_9 0
x2,12_10 0
x2,12_12 0
x2,12_13 0
x2,12_14 0
x2,12_16 0
x2,12_18 0
x2,12_19 0
x2,12_20 0
x2,12_28 0
x2,12_32 0
x2,13_1 0
x2,13_4 0
x2,13_6 0
x2,13_7 0
x2,13_9 0
x2,13_10 0
x2,13_12 0
x2,13_13 0
x2,13_14 0
x2,13_16 0
x2,13_18 0
x2,13_19 0
x2,13_20 0
x2,13_28 0
x2,13_32 0
x2,14_1 0
x2,14_4 0
x2,14_6 0
x2,14_7 0
x2,14_9 0
x2,14_10 0
x2,14_12 0
x2,14_13 0
x2,14_14 0
x2,14_16 0
x2,14_18 0
x2,14_19 0
x2,14_20 0
x2,14_28 0
x2,14_32 0
x2,15_1 0
x2,15_4 0
x2,15_6 0
x2,15_7 0
x2,15_9 0
x2,15_10 0
x2,15_12 0
x2,15_13 0
x2,15_14 0
x2,15_16 0
x2,15_18 0
x2,15_19 0
x2,15_20 0
x2,15_28 0
x2,15_32 0
x3,4_1 0
x3,4_4 0
x3,4_6 1
x3,4_7 0
x3,4_9 0
x3,4_10 0
x3,4_12 0
x3,4_13 0
x3,4_14 0
x3,4_16 0
x3,4_18 0
x3,4_19 0
x3,4_20 0
x3,4_28 0
x3,4_32 0
x3,5_1 0
x3,5_4 0
x3,5_6 0
x3,5_7 0
x3,5_9 0
x3,5_10 0
x3,5_12 0
x3,5_13 0
x3,5_14 0
x3,5_16 0
x3,5_18 1
x3,5_19 0
x3,5_20 0
x3,5_28 0
x3,5_32 0
x3,6_1 0
x3,6_4 0
x3,6_6 0
x3,6_7 0
x3,6_9 0
x3,6_10 0
x3,6_12 0
x3,6_13 0
x3,6_14 0
x3,6_16 0
x3,6_18 0
x3,6_19 0
x3,6_20 0
x3,6_28 0
x3,6_32 0
x3,7_1 0
x3,7_4 0
x3,7_6 0
x3,7_7 0
x3,7_9 0
x3,7_10 0
x3,7_12 0
x3,7_13 0
x3,7_14 0
x3,7_16 0
x3,7_18 0
x3,7_19 0
x3,7_20 0
x3,7_28 0
x3,7_32 0
x3,8_1 0
x3,8_4 0
x3,8_6 0
x3,8_7 0
x3,8_9 0
x3,8_10 0
x3,8_12 0
x3,8_13 0
x3,8_14 0
x3,8_16 0
x3,8_18 0
x3,8_19 0
x3,8_20 0
x3,8_28 0
x3,8_32 0
x3,9_1 0
x3,9_4 0
x3,9_6 0
x3,9_7 0
x3,9_9 0
x3,9_10 0
x3,9_12 0
x3,9_13 0
x3,9_14 0
x3,9_16 0
x3,9_18 0
x3,9_19 0
x3,9_20 0
x3,9_28 0
x3,9_32 0
x3,10_1 0
x3,10_4 0
x3,10_6 0
x3,10_7 0
x3,10_9 0
x3,10_10 0
x3,10_12 0
x3,10_13 0
x3,10_14 0
x3,10_16 0
x3,10_18 0
x3,10_19 0
x3,10_20 0
x3,10_28 0
x3,10_32 0
x3,11_1 0
x3,11_4 0
x3,11_6 0
x3,11_7 0
x3,11_9 0
x3,11_10 0
x3,11_12 0
x3,11_13 0
x3,11_14 0
x3,11_16 0
x3,11_18 0
x3,11_19 0
x3,11_20 0
x3,11_28 0
x3,11_32 0
x3,12_1 0
x3,12_4 0
x3,12_6 0
x3,12_7 0
x3,12_9 0
x3,12_10 0
x3,12_12 0
x3,12_13 0
x3,12_14 0
x3,12_16 0
x3,12_18 0
x3,12_19 0
x3,12_20 0
x3,12_28 0
x3,12_32 0
x3,13_1 0
x3,13_4 0
x3,13_6 0
x3,13_7 0
x3,13_9 0
x3,13_10 0
x3,13_12 0
x3,13_13 0
x3,13_14 0
x3,13_16 0
x3,13_18 0
x3,13_19 0
x3,13_20 0
x3,13_28 0
x3,13_32 0
x3,14_1 0
x3,14_4 0
x3,14_6 0
x3,14_7 0
x3,14_9 0
x3,14_10 0
x3,14_12 0
x3,14_13 0
x3,14_14 0
x3,14_16 0
x3,14_18 0
x3,14_19 0
x3,14_20 0
x3,14_28 0
x3,14_32 0
x3,15_1 0
x3,15_4 0
x3,15_6 0
x3,15_7 0
x3,15_9 0
x3,15_10 0
x3,15_12 0
x3,15_13 0
x3,15_14 0
x3,15_16 0
x3,15_18 0
x3,15_19 0
x3,15_20 0
x3,15_28 0
x3,15_32 0
x4,5_1 0
x4,5_4 0
x4,5_6 0
x4,5_7 0
x4,5_9 0
x4,5_10 0
x4,5_12 1
x4,5_13 0
x4,5_14 0
x4,5_16 0
x4,5_18 0
x4,5_19 0
x4,5_20 0
x4,5_28 0
x4,5_32 0
x4,6_1 0
x4,6_4 0
x4,6_6 0
x4,6_7 0
x4,6_9 0
x4,6_10 0
x4,6_12 0
x4,6_13 0
x4,6_14 0
x4,6_16 0
x4,6_18 0
x4,6_19 0
x4,6_20 0
x4,6_28 0
x4,6_32 0
x4,7_1 0
x4,7_4 0
x4,7_6 0
x4,7_7 0
x4,7_9 0
x4,7_10 0
x4,7_12 0
x4,7_13 0
x4,7_14 0
x4,7_16 0
x4,7_18 0
x4,7_19 0
x4,7_20 0
x4,7_28 0
x4,7_32 0
x4,8_1 0
x4,8_4 0
x4,8_6 0
x4,8_7 0
x4,8_9 0
x4,8_10 0
x4,8_12 0
x4,8_13 0
x4,8_14 0
x4,8_16 0
x4,8_18 0
x4,8_19 0
x4,8_20 0
x4,8_28 0
x4,8_32 0
x4,9_1 0
x4,9_4 0
x4,9_6 0
x4,9_7 0
x4,9_9 0
x4,9_10 0
x4,9_12 0
x4,9_13 0
x4,9_14 0
x4,9_16 0
x4,9_18 0
x4,9_19 0
x4,9_20 0
x4,9_28 0
x4,9_32 0
x4,10_1 0
x4,10_4 0
x4,10_6 0
x4,10_7 0
x4,10_9 0
x4,10_10 0
x4,10_12 0
x4,10_13 0
x4,10_14 0
x4,10_16 0
x4,10_18 0
x4,10_19 0
x4,10_20 0
x4,10_28 0
x4,10_32 0
x4,11_1 0
x4,11_4 0
x4,11_6 0
x4,11_7 0
x4,11_9 0
x4,11_10 0
x4,11_12 0
x4,11_13 0
x4,11_14 0
x4,11_16 0
x4,11_18 0
x4,11_19 0
x4,11_20 0
x4,11_28 0
x4,11_32 0
x4,12_1 0
x4,12_4 0
x4,12_6 0
x4,12_7 0
x4,12_9 0
x4,12_10 0
x4,12_12 0
x4,12_13 0
x4,12_14 0
x4,12_16 0
x4,12_18 0
x4,12_19 0
x4,12_20 0
x4,12_28 0
x4,12_32 0
x4,13_1 0
x4,13_4 0
x4,13_6 0
x4,13_7 0
x4,13_9 0
x4,13_10 0
x4,13_12 0
x4,13_13 0
x4,13_14 0
x4,13_16 0
x4,13_18 0
x4,13_19 0
x4,13_20 0
x4,13_28 0
x4,13_32 0
x4,14_1 0
x4,14_4 0
x4,14_6 0
x4,14_7 0
x4,14_9 0
x4,14_10 0
x4,14_12 0
x4,14_13 0
x4,14_14 0
x4,14_16 0
x4,14_18 0
x4,14_19 0
x4,14_20 0
x4,14_28 0
x4,14_32 0
x4,15_1 0
x4,15_4 0
x4,15_6 0
x4,15_7 0
x4,15_9 0
x4,15_10 0
x4,15_12 0
x4,15_13 0
x4,15_14 0
x4,15_16 0
x4,15_18 0
x4,15_19 0
x4,15_20 0
x4,15_28 0
x4,15_32 0
x5,6_1 0
x5,6_4 0
x5,6_6 0
x5,6_7 0
x5,6_9 0
x5,6_10 0
x5,6_12 0
x5,6_13 0
x5,6_14 0
x5,6_16 0
x5,6_18 0
x5,6_19 0
x5,6_20 0
x5,6_28 0
x5,6_32 0
x5,7_1 0
x5,7_4 0
x5,7_6 0
x5,7_7 0
x5,7_9 0
x5,7_10 0
x5,7_12 0
x5,7_13 0
x5,7_14 0
x5,7_16 0
x5,7_18 0
x5,7_19 0
x5,7_20 0
x5,7_28 0
x5,7_32 0
x5,8_1 0
x5,8_4 0
x5,8_6 0
x5,8_7 0
x5,8_9 0
x5,8_10 0
x5,8_12 0
x5,8_13 0
x5,8_14 0
x5,8_16 0
x5,8_18 0
x5,8_19 0
x5,8_20 0
x5,8_28 0
x5,8_32 0
x5,9_1 0
x5,9_4 0
x5,9_6 0
x5,9_7 0
x5,9_9 0
x5,9_10 0
x5,9_12 0
x5,9_13 0
x5,9_14 0
x5,9_16 0
x5,9_18 0
x5,9_19 0
x5,9_20 0
x5,9_28 0
x5,9_32 0
x5,10_1 0
x5,10_4 0
x5,10_6 0
x5,10_7 0
x5,10_9 0
x5,10_10 0
x5,10_12 0
x5,10_13 0
x5,10_14 0
x5,10_16 0
x5,10_18 0
x5,10_19 0
x5,10_20 0
x5,10_28 0
x5,10_32 0
x5,11_1 0
x5,11_4 0
x5,11_6 0
x5,11_7 0
x5,11_9 0
x5,11_10 0
x5,11_12 0
x5,11_13 0
x5,11_14 0
x5,11_16 0
x5,11_18 0
x5,11_19 0
x5,11_20 0
x5,11_28 0
x5,11_32 0
x5,12_1 0
x5,12_4 0
x5,12_6 0
x5,12_7 0
x5,12_9 0
x5,12_10 0
x5,12_12 0
x5,12_13 0
x5,12_14 0
x5,12_16 0
x5,12_18 0
x5,12_19 0
x5,12_20 0
x5,12_28 0
x5,12_32 0
x5,13_1 0
x5,13_4 0
x5,13_6 0
x5,13_7 0
x5,13_9 0
x5,13_10 0
x5,13_12 0
x5,13_13 0
x5,13_14 0
x5,13_16 0
x5,13_18 0
x5,13_19 0
x5,13_20 0
x5,13_28 0
x5,13_32 0
x5,14_1 0
x5,14_4 0
x5,14_6 0
x5,14_7 0
x5,14_9 0
x5,14_10 0
x5,14_12 0
x5,14_13 0
x5,14_14 0
x5,14_16 0
x5,14_18 0
x5,14_19 0
x5,14_20 0
x5,14_28 0
x5,14_32 0
x5,15_1 0
x5,15_4 0
x5,15_6 0
x5,15_7 0
x5,15_9 0
x5,15_10 0
x5,15_12 0
x5,15_13 0
x5,15_14 0
x5,15_16 0
x5,15_18 0
x5,15_19 0
x5,15_20 0
x5,15_28 0
x5,15_32 0
x6,7_1 0
x6,7_4 0
x6,7_6 0
x6,7_7 0
x6,7_9 0
x6,7_10 0
x6,7_12 0
x6,7_13 0
x6,7_14 0
x6,7_16 0
x6,7_18 0
x6,7_19 0
x6,7_20 0
x6,7_28 0
x6,7_32 0
x6,8_1 0
x6,8_4 0
x6,8_6 0
x6,8_7 0
x6,8_9 0
x6,8_10 0
x6,8_12 0
x6,8_13 0
x6,8_14 0
x6,8_16 0
x6,8_18 0
x6,8_19 0
x6,8_20 0
x6,8_28 0
x6,8_32 0
x6,9_1 0
x6,9_4 0
x6,9_6 0
x6,9_7 0
x6,9_9 0
x6,9_10 0
x6,9_12 0
x6,9_13 0
x6,9_14 0
x6,9_16 0
x6,9_18 0
x6,9_19 0
x6,9_20 0
x6,9_28 0
x6,9_32 0
x6,10_1 0
x6,10_4 0
x6,10_6 0
x6,10_7 0
x6,10_9 0
x6,10_10 0
x6,10_12 0
x6,10_13 0
x6,10_14 0
x6,10_16 0
x6,10_18 0
x6,10_19 0
x6,10_20 0
x6,10_28 0
x6,10_32 0
x6,11_1 0
x6,11_4 0
x6,11_6 0
x6,11_7 0
x6,11_9 0
x6,11_10 0
x6,11_12 0
x6,11_13 0
x6,11_14 0
x6,11_16 0
x6,11_18 0
x6,11_19 0
x6,11_20 0
x6,11_28 0
x6,11_32 0
x6,12_1 0
x6,12_4 0
x6,12_6 0
x6,12_7 0
x6,12_9 0
x6,12_10 0
x6,12_12 0
x6,12_13 0
x6,12_14 0
x6,12_16 0
x6,12_18 0
x6,12_19 0
x6,12_20 0
x6,12_28 0
x6,12_32 0
x6,13_1 0
x6,13_4 0
x6,13_6 0
x6,13_7 0
x6,13_9 0
x6,13_10 0
x6,13_12 0
x6,13_13 0
x6,13_14 0
x6,13_16 0
x6,13_18 0
x6,13_19 0
x6,13_20 0
x6,13_28 0
x6,13_32 0
x6,14_1 0
x6,14_4 0
x6,14_6 0
x6,14_7 0
x6,14_9 0
x6,14_10 0
x6,14_12 0
x6,14_13 0
x6,14_14 0
x6,14_16 0
x6,14_18 0
x6,14_19 0
x6,14_20 0
x6,14_28 0
x6,14_32 0
x6,15_1 0
x6,15_4 0
x6,15_6 0
x6,15_7 0
x6,15_9 0
x6,15_10 0
x6,15_12 0
x6,15_13 0
x6,15_14 0
x6,15_16 0
x6,15_18 0
x6,15_19 0
x6,15_20 0
x6,15_28 0
x6,15_32 0
x7,8_1 0
x7,8_4 0
x7,8_6 0
x7,8_7 0
x7,8_9 0
x7,8_10 0
x7,8_12 0
x7,8_13 0
x7,8_14 0
x7,8_16 0
x7,8_18 0
x7,8_19 0
x7,8_20 0
x7,8_28 0
x7,8_32 0
x7,9_1 0
x7,9_4 0
x7,9_6 0
x7,9_7 0
x7,9_9 0
x7,9_10 0
x7,9_12 0
x7,9_13 0
x7,9_14 0
x7,9_16 0
x7,9_18 0
x7,9_19 0
x7,9_20 0
x7,9_28 0
x7,9_32 0
x7,10_1 0
x7,10_4 0
x7,10_6 0
x7,10_7 0
x7,10_9 0
x7,10_10 0
x7,10_12 0
x7,10_13 0
x7,10_14 0
x7,10_16 0
x7,10_18 0
x7,10_19 0
x7,10_20 0
x7,10_28 0
x7,10_32 0
x7,11_1 0
x7,11_4 0
x7,11_6 0
x7,11_7 0
x7,11_9 0
x7,11_10 0
x7,11_12 0
x7,11_13 0
x7,11_14 0
x7,11_16 0
x7,11_18 0
x7,11_19 0
x7,11_20 0
x7,11_28 0
x7,11_32 0
x7,12_1 0
x7,12_4 0
x7,12_6 0
x7,12_7 0
x7,12_9 0
x7,12_10 0
x7,12_12 0
x7,12_13 0
x7,12_14 0
x7,12_16 0
x7,12_18 0
x7,12_19 0
x7,12_20 0
x7,12_28 0
x7,12_32 0
x7,13_1 0
x7,13_4 0
x7,13_6 0
x7,13_7 0
x7,13_9 0
x7,13_10 0
x7,13_12 0
x7,13_13 0
x7,13_14 0
x7,13_16 0
x7,13_18 0
x7,13_19 0
x7,13_20 0
x7,13_28 0
x7,13_32 0
x7,14_1 0
x7,14_4 0
x7,14_6 0
x7,14_7 0
x7,14_9 0
x7,14_10 0
x7,14_12 0
x7,14_13 0
x7,14_14 0
x7,14_16 0
x7,14_18 0
x7,14_19 0
x7,14_20 0
x7,14_28 0
x7,14_32 0
x7,15_1 0
x7,15_4 0
x7,15_6 0
x7,15_7 0
x7,15_9 0
x7,15_10 0
x7,15_12 0
x7,15_13 0
x7,15_14 0
x7,15_16 0
x7,15_18 0
x7,15_19 0
x7,15_20 0
x7,15_28 0
x7,15_32 0
x8,9_1 0
x8,9_4 0
x8,9_6 0
x8,9_7 0
x8,9_9 0
x8,9_10 0
x8,9_12 0
x8,9_13 0
x8,9_14 0
x8,9_16 0
x8,9_18 0
x8,9_19 0
x8,9_20 0
x8,9_28 0
x8,9_32 0
x8,10_1 0
x8,10_4 0
x8,10_6 0
x8,10_7 0
x8,10_9 0
x8,10_10 0
x8,10_12 0
x8,10_13 0
x8,10_14 0
x8,10_16 0
x8,10_18 0
x8,10_19 0
x8,10_20 0
x8,10_28 0
x8,10_32 0
x8,11_1 0
x8,11_4 0
x8,11_6 0
x8,11_7 0
x8,11_9 0
x8,11_10 0
x8,11_12 0
x8,11_13 0
x8,11_14 0
x8,11_16 0
x8,11_18 0
x8,11_19 0
x8,11_20 0
x8,11_28 0
x8,11_32 0
x8,12_1 0
x8,12_4 0
x8,12_6 0
x8,12_7 0
x8,12_9 0
x8,12_10 0
x8,12_12 0
x8,12_13 0
x8,12_14 0
x8,12_16 0
x8,12_18 0
x8,12_19 0
x8,12_20 0
x8,12_28 0
x8,12_32 0
x8,13_1 0
x8,13_4 0
x8,13_6 0
x8,13_7 0
x8,13_9 0
x8,13_10 0
x8,13_12 0
x8,13_13 0
x8,13_14 0
x8,13_16 0
x8,13_18 0
x8,13_19 0
x8,13_20 0
x8,13_28 0
x8,13_32 0
x8,14_1 0
x8,14_4 0
x8,14_6 0
x8,14_7 0
x8,14_9 0
x8,14_10 0
x8,14_12 0
x8,14_13 0
x8,14_14 0
x8,14_16 0
x8,14_18 0
x8,14_19 0
x8,14_20 0
x8,14_28 0
x8,14_32 0
x8,15_1 0
x8,15_4 0
x8,15_6 0
x8,15_7 0
x8,15_9 0
x8,15_10 0
x8,15_12 0
x8,15_13 0
x8,15_14 0
x8,15_16 0
x8,15_18 0
x8,15_19 0
x8,15_20 0
x8,15_28 0
x8,15_32 0
x9,10_1 0
x9,10_4 0
x9,10_6 0
x9,10_7 0
x9,10_9 0
x9,10_10 0
x9,10_12 0
x9,10_13 0
x9,10_14 0
x9,10_16 0
x9,10_18 0
x9,10_19 0
x9,10_20 0
x9,10_28 0
x9,10_32 0
x9,11_1 0
x9,11_4 0
x9,11_6 0
x9,11_7 0
x9,11_9 0
x9,11_10 0
x9,11_12 0
x9,11_13 0
x9,11_14 0
x9,11_16 0
x9,11_18 0
x9,11_19 0
x9,11_20 0
x9,11_28 0
x9,11_32 0
x9,12_1 0
x9,12_4 0
x9,12_6 0
x9,12_7 0
x9,12_9 0
x9,12_10 0
x9,12_12 0
x9,12_13 0
x9,12_14 0
x9,12_16 0
x9,12_18 0
x9,12_19 0
x9,12_20 0
x9,12_28 0
x9,12_32 0
x9,13_1 0
x9,13_4 0
x9,13_6 0
x9,13_7 0
x9,13_9 0
x9,13_10 0
x9,13_12 0
x9,13_13 0
x9,13_14 0
x9,13_16 0
x9,13_18 0
x9,13_19 0
x9,13_20 0
x9,13_28 0
x9,13_32 0
x9,14_1 0
x9,14_4 0
x9,14_6 0
x9,14_7 0
x9,14_9 0
x9,14_10 0
x9,14_12 0
x9,14_13 0
x9,14_14 0
x9,14_16 0
x9,14_18 0
x9,14_19 0
x9,14_20 0
x9,14_28 0
x9,14_32 0
x9,15_1 0
x9,15_4 0
x9,15_6 0
x9,15_7 0
x9,15_9 0
x9,15_10 0
x9,15_12 0
x9,15_13 0
x9,15_14 0
x9,15_16 0
x9,15_18 0
x9,15_19 0
x9,15_20 0
x9,15_28 0
x9,15_32 0
x10,11_1 0
x10,11_4 0
x10,11_6 0
x10,11_7 0
x10,11_9 0
x10,11_10 0
x10,11_12 0
x10,11_13 0
x10,11_14 0
x10,11_16 0
x10,11_18 0
x10,11_19 0
x10,11_20 0
x10,11_28 0
x10,11_32 0
x10,12_1 0
x10,12_4 0
x10,12_6 0
x10,12_7 0
x10,12_9 0
x10,12_10 0
x10,12_12 0
x10,12_13 0
x10,12_14 0
x10,12_16 0
x10,12_18 0
x10,12_19 0
x10,12_20 0
x10,12_28 0
x10,12_32 0
x10,13_1 0
x10,13_4 0
x10,13_6 0
x10,13_7 0
x10,13_9 0
x10,13_10 0
x10,13_12 0
x10,13_13 0
x10,13_14 0
x10,13_16 0
x10,13_18 0
x10,13_19 0
x10,13_20 0
x10,13_28 0
x10,13_32 0
x10,14_1 0
x10,14_4 0
x10,14_6 0
x10,14_7 0
x10,14_9 0
x10,14_10 0
x10,14_12 0
x10,14_13 0
x10,14_14 0
x10,14_16 0
x10,14_18 0
x10,14_19 0
x10,14_20 0
x10,14_28 0
x10,14_32 0
x10,15_1 0
x10,15_4 0
x10,15_6 0
x10,15_7 0
x10,15_9 0
x10,15_10 0
x10,15_12 0
x10,15_13 0
x10,15_14 0
x10,15_16 0
x10,15_18 0
x10,15_19 0
x10,15_20 0
x10,15_28 0
x10,15_32 0
x11,12_1 0
x11,12_4 0
x11,12_6 0
x11,12_7 0
x11,12_9 0
x11,12_10 0
x11,12_12 0
x11,12_13 0
x11,12_14 0
x11,12_16 0
x11,12_18 0
x11,12_19 0
x11,12_20 0
x11,12_28 0
x11,12_32 0
x11,13_1 0
x11,13_4 0
x11,13_6 0
x11,13_7 0
x11,13_9 0
x11,13_10 0
x11,13_12 0
x11,13_13 0
x11,13_14 0
x11,13_16 0
x11,13_18 0
x11,13_19 0
x11,13_20 0
x11,13_28 0
x11,13_32 0
x11,14_1 0
x11,14_4 0
x11,14_6 0
x11,14_7 0
x11,14_9 0
x11,14_10 0
x11,14_12 0
x11,14_13 0
x11,14_14 0
x11,14_16 0
x11,14_18 0
x11,14_19 0
x11,14_20 0
x11,14_28 0
x11,14_32 0
x11,15_1 0
x11,15_4 0
x11,15_6 0
x11,15_7 0
x11,15_9 0
x11,15_10 0
x11,15_12 0
x11,15_13 0
x11,15_14 0
x11,15_16 0
x11,15_18 0
x11,15_19 0
x11,15_20 0
x11,15_28 0
x11,15_32 0
x12,13_1 0
x12,13_4 0
x12,13_6 0
x12,13_7 0
x12,13_9 0
x12,13_10 0
x12,13_12 0
x12,13_13 0
x12,13_14 0
x12,13_16 0
x12,13_18 0
x12,13_19 0
x12,13_20 0
x12,13_28 0
x12,13_32 0
x12,14_1 0
x12,14_4 0
x12,14_6 0
x12,14_7 0
x12,14_9 0
x12,14_10 0
x12,14_12 0
x12,14_13 0
x12,14_14 0
x12,14_16 0
x12,14_18 0
x12,14_19 0
x12,14_20 0
x12,14_28 0
x12,14_32 0
x12,15_1 0
x12,15_4 0
x12,15_6 0
x12,15_7 0
x12,15_9 0
x12,15_10 0
x12,15_12 0
x12,15_13 0
x12,15_14 0
x12,15_16 0
x12,15_18 0
x12,15_19 0
x12,15_20 0
x12,15_28 0
x12,15_32 0
x13,14_1 0
x13,14_4 0
x13,14_6 0
x13,14_7 0
x13,14_9 0
x13,14_10 0
x13,14_12 0
x13,14_13 0
x13,14_14 0
x13,14_16 0
x13,14_18 0
x13,14_19 0
x13,14_20 0
x13,14_28 0
x13,14_32 0
x13,15_1 0
x13,15_4 0
x13,15_6 0
x13,15_7 0
x13,15_9 0
x13,15_10 0
x13,15_12 0
x13,15_13 0
x13,15_14 0
x13,15_16 0
x13,15_18 0
x13,15_19 0
x13,15_20 0
x13,15_28 0
x13,15_32 0
x14,15_1 0
x14,15_4 0
x14,15_6 0
x14,15_7 0
x14,15_9 0
x14,15_10 0
x14,15_12 0
x14,15_13 0
x14,15_14 0
x14,15_16 0
x14,15_18 0
x14,15_19 0
x14,15_20 0
x14,15_28 0
x14,15_32 0
z0 1
z1 1
z2 1
z3 1
z4 1
z5 1
z6 0
z7 0
z8 0
z9 0
z10 0
z11 0
z12 0
z13 0
z14 0
z15 0
p0 1
p1 5
p2 14
p3 15
p4 21
p5 33
p6 34
p7 35
p8 36
p9 37
p10 38
p11 39
p12 40
p13 41
p14 42
p15 43
